NAME : n40w180.002.448.tour
COMMENT : Length = 448
COMMENT : Found by LKH [Keld Helsgaun] Tue May  2 05:47:22 2017
TYPE : TOUR
DIMENSION : 41
TOUR_SECTION
1
31
2
7
11
14
19
27
36
9
18
24
20
5
28
38
25
16
12
15
22
34
13
17
40
4
33
3
26
8
39
29
21
37
23
6
35
30
10
32
41
-1
EOF
